p cnf 1515 2866
-1 2 0
3 2 0
1 -3 -2 0
4 -2 0
-4 2 0
-5 6 0
7 6 0
5 -7 -6 0
8 -6 0
-8 6 0
-9 10 0
11 10 0
9 -11 -10 0
12 -10 0
-12 10 0
-13 14 0
15 14 0
13 -15 -14 0
16 -14 0
-16 14 0
-17 18 0
19 18 0
17 -19 -18 0
20 -18 0
-20 18 0
-21 22 0
23 22 0
21 -23 -22 0
24 -22 0
-24 22 0
-25 26 0
27 26 0
25 -27 -26 0
28 -26 0
-28 26 0
-29 30 0
31 30 0
29 -31 -30 0
32 -30 0
-32 30 0
-33 34 0
35 34 0
33 -35 -34 0
36 -34 0
-36 34 0
-37 38 0
39 38 0
37 -39 -38 0
40 -38 0
-40 38 0
-41 42 0
43 42 0
41 -43 -42 0
44 -42 0
-44 42 0
-45 46 0
47 46 0
45 -47 -46 0
48 -46 0
-48 46 0
-49 50 0
51 50 0
49 -51 -50 0
52 -50 0
-52 50 0
-53 54 0
55 54 0
53 -55 -54 0
56 -54 0
-56 54 0
-57 58 0
59 58 0
57 -59 -58 0
60 -58 0
-60 58 0
-61 62 0
63 62 0
61 -63 -62 0
64 -62 0
-64 62 0
-65 66 0
67 66 0
65 -67 -66 0
68 -66 0
-68 66 0
-69 70 0
71 70 0
69 -71 -70 0
72 -70 0
-72 70 0
-73 74 0
75 74 0
73 -75 -74 0
76 -74 0
-76 74 0
-77 78 0
79 78 0
77 -79 -78 0
80 -78 0
-80 78 0
-81 82 0
83 82 0
81 -83 -82 0
84 -82 0
-84 82 0
-85 86 0
87 86 0
85 -87 -86 0
88 -86 0
-88 86 0
-89 90 0
91 90 0
89 -91 -90 0
92 -90 0
-92 90 0
-93 94 0
95 94 0
93 -95 -94 0
96 -94 0
-96 94 0
-97 98 0
99 98 0
97 -99 -98 0
100 -98 0
-100 98 0
-101 102 0
103 102 0
101 -103 -102 0
104 -102 0
-104 102 0
-105 106 0
107 106 0
105 -107 -106 0
108 -106 0
-108 106 0
-109 110 0
111 110 0
109 -111 -110 0
112 -110 0
-112 110 0
-113 114 0
115 114 0
113 -115 -114 0
116 -114 0
-116 114 0
-117 118 0
119 118 0
117 -119 -118 0
120 -118 0
-120 118 0
-121 122 0
123 122 0
121 -123 -122 0
124 -122 0
-124 122 0
-125 126 0
127 126 0
125 -127 -126 0
128 -126 0
-128 126 0
-129 130 0
131 130 0
129 -131 -130 0
132 -130 0
-132 130 0
-133 134 0
135 134 0
133 -135 -134 0
136 -134 0
-136 134 0
-137 138 0
139 138 0
137 -139 -138 0
140 -138 0
-140 138 0
-141 142 0
143 142 0
141 -143 -142 0
144 -142 0
-144 142 0
-145 146 0
147 146 0
145 -147 -146 0
148 -146 0
-148 146 0
-149 150 0
151 150 0
149 -151 -150 0
152 -150 0
-152 150 0
-153 154 0
155 154 0
153 -155 -154 0
156 -154 0
-156 154 0
-157 158 0
159 158 0
157 -159 -158 0
160 -158 0
-160 158 0
-161 162 0
163 162 0
161 -163 -162 0
164 -162 0
-164 162 0
-165 166 0
167 166 0
165 -167 -166 0
168 -166 0
-168 166 0
-169 170 0
171 170 0
169 -171 -170 0
172 -170 0
-172 170 0
-173 174 0
175 174 0
173 -175 -174 0
176 -174 0
-176 174 0
-177 178 0
179 178 0
177 -179 -178 0
180 -178 0
-180 178 0
-181 182 0
183 182 0
181 -183 -182 0
184 -182 0
-184 182 0
-185 186 0
187 186 0
185 -187 -186 0
188 -186 0
-188 186 0
-189 190 0
191 190 0
189 -191 -190 0
192 -190 0
-192 190 0
-193 194 0
195 194 0
193 -195 -194 0
196 -194 0
-196 194 0
-197 198 0
199 198 0
197 -199 -198 0
200 -198 0
-200 198 0
-201 202 0
203 202 0
201 -203 -202 0
204 -202 0
-204 202 0
-205 206 0
207 206 0
205 -207 -206 0
208 -206 0
-208 206 0
-209 210 0
211 210 0
209 -211 -210 0
212 -210 0
-212 210 0
-213 214 0
215 214 0
213 -215 -214 0
216 -214 0
-216 214 0
-217 218 0
219 218 0
217 -219 -218 0
220 -218 0
-220 218 0
-221 222 0
223 222 0
221 -223 -222 0
224 -222 0
-224 222 0
-225 226 0
227 226 0
225 -227 -226 0
228 -226 0
-228 226 0
-229 230 0
231 230 0
229 -231 -230 0
232 -230 0
-232 230 0
-233 234 0
235 234 0
233 -235 -234 0
236 -234 0
-236 234 0
-237 238 0
239 238 0
237 -239 -238 0
240 -238 0
-240 238 0
-241 242 0
243 242 0
241 -243 -242 0
244 -242 0
-244 242 0
-245 246 0
247 246 0
245 -247 -246 0
248 -246 0
-248 246 0
-249 250 0
251 250 0
249 -251 -250 0
252 -250 0
-252 250 0
-253 254 0
255 254 0
253 -255 -254 0
256 -254 0
-256 254 0
-257 258 0
259 258 0
257 -259 -258 0
260 -258 0
-260 258 0
-261 262 0
263 262 0
261 -263 -262 0
264 -262 0
-264 262 0
-265 266 0
267 266 0
265 -267 -266 0
268 -266 0
-268 266 0
-269 270 0
271 270 0
269 -271 -270 0
272 -270 0
-272 270 0
-273 274 0
275 274 0
273 -275 -274 0
276 -274 0
-276 274 0
-277 278 0
279 278 0
277 -279 -278 0
280 -278 0
-280 278 0
-281 282 0
283 282 0
281 -283 -282 0
284 -282 0
-284 282 0
-285 286 0
287 286 0
285 -287 -286 0
288 -286 0
-288 286 0
-289 290 0
291 290 0
289 -291 -290 0
292 -290 0
-292 290 0
-293 294 0
295 294 0
293 -295 -294 0
296 -294 0
-296 294 0
-297 298 0
299 298 0
297 -299 -298 0
300 -298 0
-300 298 0
-301 302 0
303 302 0
301 -303 -302 0
304 -302 0
-304 302 0
-305 306 0
307 306 0
305 -307 -306 0
308 -306 0
-308 306 0
-309 310 0
311 310 0
309 -311 -310 0
312 -310 0
-312 310 0
-313 314 0
315 314 0
313 -315 -314 0
316 -314 0
-316 314 0
-317 318 0
319 318 0
317 -319 -318 0
320 -318 0
-320 318 0
-321 322 0
323 322 0
321 -323 -322 0
324 -322 0
-324 322 0
-325 326 0
327 326 0
325 -327 -326 0
328 -326 0
-328 326 0
-329 330 0
331 330 0
329 -331 -330 0
332 -330 0
-332 330 0
-333 334 0
335 334 0
333 -335 -334 0
336 -334 0
-336 334 0
-337 338 0
339 338 0
337 -339 -338 0
340 -338 0
-340 338 0
-341 342 0
343 342 0
341 -343 -342 0
344 -342 0
-344 342 0
-345 346 0
347 346 0
345 -347 -346 0
348 -346 0
-348 346 0
-349 350 0
351 350 0
349 -351 -350 0
352 -350 0
-352 350 0
-353 354 0
355 354 0
353 -355 -354 0
356 -354 0
-356 354 0
-357 358 0
359 358 0
357 -359 -358 0
360 -358 0
-360 358 0
-361 362 0
363 362 0
361 -363 -362 0
364 -362 0
-364 362 0
-365 366 0
367 366 0
365 -367 -366 0
368 -366 0
-368 366 0
-369 370 0
371 370 0
369 -371 -370 0
372 -370 0
-372 370 0
-373 374 0
375 374 0
373 -375 -374 0
376 -374 0
-376 374 0
-377 378 0
379 378 0
377 -379 -378 0
380 -378 0
-380 378 0
-381 382 0
383 382 0
381 -383 -382 0
384 -382 0
-384 382 0
-385 386 0
387 386 0
385 -387 -386 0
388 -386 0
-388 386 0
-389 390 0
391 390 0
389 -391 -390 0
392 -390 0
-392 390 0
-393 394 0
395 394 0
393 -395 -394 0
396 -394 0
-396 394 0
-397 398 0
399 398 0
397 -399 -398 0
400 -398 0
-400 398 0
-401 402 0
403 402 0
401 -403 -402 0
404 -402 0
-404 402 0
-405 406 0
407 406 0
405 -407 -406 0
408 -406 0
-408 406 0
-409 410 0
411 410 0
409 -411 -410 0
412 -410 0
-412 410 0
-413 414 0
415 414 0
413 -415 -414 0
416 -414 0
-416 414 0
-417 418 0
419 418 0
417 -419 -418 0
420 -418 0
-420 418 0
-421 422 0
423 422 0
421 -423 -422 0
424 -422 0
-424 422 0
-425 426 0
427 426 0
425 -427 -426 0
428 -426 0
-428 426 0
-429 430 0
431 430 0
429 -431 -430 0
432 -430 0
-432 430 0
-433 434 0
435 434 0
433 -435 -434 0
436 -434 0
-436 434 0
-437 438 0
439 438 0
437 -439 -438 0
440 -438 0
-440 438 0
-441 442 0
443 442 0
441 -443 -442 0
444 -442 0
-444 442 0
-445 446 0
447 446 0
445 -447 -446 0
448 -446 0
-448 446 0
-449 450 0
451 450 0
449 -451 -450 0
452 -450 0
-452 450 0
-453 454 0
455 454 0
453 -455 -454 0
456 -454 0
-456 454 0
-457 458 0
459 458 0
457 -459 -458 0
460 -458 0
-460 458 0
-461 462 0
463 462 0
461 -463 -462 0
464 -462 0
-464 462 0
-465 466 0
467 466 0
465 -467 -466 0
468 -466 0
-468 466 0
-469 470 0
471 470 0
469 -471 -470 0
472 -470 0
-472 470 0
-473 474 0
475 474 0
473 -475 -474 0
476 -474 0
-476 474 0
-477 478 0
479 478 0
477 -479 -478 0
480 -478 0
-480 478 0
-481 482 0
483 482 0
481 -483 -482 0
484 -482 0
-484 482 0
-485 486 0
487 486 0
485 -487 -486 0
488 -486 0
-488 486 0
-489 490 0
491 490 0
489 -491 -490 0
492 -490 0
-492 490 0
-493 494 0
495 494 0
493 -495 -494 0
496 -494 0
-496 494 0
-497 498 0
499 498 0
497 -499 -498 0
500 -498 0
-500 498 0
-501 502 0
503 502 0
501 -503 -502 0
504 -502 0
-504 502 0
-505 506 0
507 506 0
505 -507 -506 0
508 -506 0
-508 506 0
-509 510 0
511 510 0
509 -511 -510 0
512 -510 0
-512 510 0
-513 514 0
515 514 0
513 -515 -514 0
516 -514 0
-516 514 0
-517 518 0
519 518 0
517 -519 -518 0
520 -518 0
-520 518 0
-521 522 0
523 522 0
521 -523 -522 0
524 -522 0
-524 522 0
-525 526 0
527 526 0
525 -527 -526 0
528 -526 0
-528 526 0
-529 530 0
531 530 0
529 -531 -530 0
532 -530 0
-532 530 0
-533 534 0
535 534 0
533 -535 -534 0
536 -534 0
-536 534 0
-537 538 0
539 538 0
537 -539 -538 0
540 -538 0
-540 538 0
-541 542 0
543 542 0
541 -543 -542 0
544 -542 0
-544 542 0
-545 546 0
547 546 0
545 -547 -546 0
548 -546 0
-548 546 0
-549 550 0
551 550 0
549 -551 -550 0
552 -550 0
-552 550 0
-553 554 0
555 554 0
553 -555 -554 0
556 -554 0
-556 554 0
-557 558 0
559 558 0
557 -559 -558 0
560 -558 0
-560 558 0
-561 562 0
563 562 0
561 -563 -562 0
564 -562 0
-564 562 0
-565 566 0
567 566 0
565 -567 -566 0
568 -566 0
-568 566 0
-569 570 0
571 570 0
569 -571 -570 0
572 -570 0
-572 570 0
-573 574 0
575 574 0
573 -575 -574 0
576 -574 0
-576 574 0
-577 578 0
579 578 0
577 -579 -578 0
580 -578 0
-580 578 0
-581 582 0
583 582 0
581 -583 -582 0
584 -582 0
-584 582 0
-585 586 0
587 586 0
585 -587 -586 0
588 -586 0
-588 586 0
-589 590 0
591 590 0
589 -591 -590 0
592 -590 0
-592 590 0
-593 594 0
595 594 0
593 -595 -594 0
596 -594 0
-596 594 0
-597 598 0
599 598 0
597 -599 -598 0
600 -598 0
-600 598 0
-601 602 0
603 602 0
601 -603 -602 0
604 -602 0
-604 602 0
-605 606 0
607 606 0
605 -607 -606 0
608 -606 0
-608 606 0
-609 610 0
611 610 0
609 -611 -610 0
612 -610 0
-612 610 0
-613 614 0
615 614 0
613 -615 -614 0
616 -614 0
-616 614 0
-617 618 0
619 618 0
617 -619 -618 0
620 -618 0
-620 618 0
-621 622 0
623 622 0
621 -623 -622 0
624 -622 0
-624 622 0
-625 626 0
627 626 0
625 -627 -626 0
628 -626 0
-628 626 0
-629 630 0
631 630 0
629 -631 -630 0
632 -630 0
-632 630 0
-633 634 0
635 634 0
633 -635 -634 0
636 -634 0
-636 634 0
-637 638 0
639 638 0
637 -639 -638 0
640 -638 0
-640 638 0
-641 642 0
643 642 0
641 -643 -642 0
644 -642 0
-644 642 0
-645 646 0
647 646 0
645 -647 -646 0
648 -646 0
-648 646 0
-649 650 0
651 650 0
649 -651 -650 0
652 -650 0
-652 650 0
-653 654 0
655 654 0
653 -655 -654 0
656 -654 0
-656 654 0
-657 658 0
659 658 0
657 -659 -658 0
660 -658 0
-660 658 0
-661 662 0
663 662 0
661 -663 -662 0
664 -662 0
-664 662 0
-665 666 0
667 666 0
665 -667 -666 0
668 -666 0
-668 666 0
-669 670 0
671 670 0
669 -671 -670 0
672 -670 0
-672 670 0
-673 674 0
675 674 0
673 -675 -674 0
676 -674 0
-676 674 0
-677 678 0
679 678 0
677 -679 -678 0
680 -678 0
-680 678 0
-681 682 0
683 682 0
681 -683 -682 0
684 -682 0
-684 682 0
-685 686 0
687 686 0
685 -687 -686 0
688 -686 0
-688 686 0
-689 690 0
691 690 0
689 -691 -690 0
692 -690 0
-692 690 0
-693 694 0
695 694 0
693 -695 -694 0
696 -694 0
-696 694 0
-697 698 0
699 698 0
697 -699 -698 0
700 -698 0
-700 698 0
-701 702 0
703 702 0
701 -703 -702 0
704 -702 0
-704 702 0
-705 706 0
707 706 0
705 -707 -706 0
708 -706 0
-708 706 0
-709 710 0
711 710 0
709 -711 -710 0
712 -710 0
-712 710 0
-713 714 0
715 714 0
713 -715 -714 0
716 -714 0
-716 714 0
-717 718 0
-719 -5 718 0
717 719 -718 0
5 717 -718 0
1 -718 0
-1 718 0
-720 721 0
-9 -722 721 0
9 720 -721 0
720 722 -721 0
5 -721 0
-5 721 0
-723 724 0
-13 -725 724 0
13 723 -724 0
723 725 -724 0
9 -724 0
-9 724 0
-726 727 0
-17 -728 727 0
17 726 -727 0
726 728 -727 0
13 -727 0
-13 727 0
-729 730 0
-21 -731 730 0
21 729 -730 0
729 731 -730 0
17 -730 0
-17 730 0
-732 733 0
-25 -734 733 0
25 732 -733 0
732 734 -733 0
21 -733 0
-21 733 0
-735 736 0
-737 -29 736 0
735 737 -736 0
29 735 -736 0
25 -736 0
-25 736 0
738 739 0
735 739 0
728 739 0
731 739 0
734 739 0
-740 0
-741 742 0
-738 -726 742 0
-738 -729 -728 742 0
-738 -732 -728 -731 742 0
739 742 0
741 738 -739 -742 0
726 741 738 -739 -742 0
729 741 738 -739 -742 0
726 729 741 738 -739 -742 0
728 741 738 -739 -742 0
726 728 741 738 -739 -742 0
732 741 738 -739 -742 0
726 732 741 738 -739 -742 0
729 732 741 738 -739 -742 0
726 729 732 741 -739 -742 0
728 732 741 738 -739 -742 0
726 728 732 741 -739 -742 0
728 729 741 738 -739 -742 0
726 728 729 741 -739 -742 0
726 728 741 -739 -742 0
731 741 738 -739 -742 0
726 731 741 738 -739 -742 0
729 731 741 738 -739 -742 0
726 729 731 741 -739 -742 0
728 731 741 738 -739 -742 0
726 728 731 741 -739 -742 0
29 -742 0
-29 742 0
-743 744 0
-37 -745 744 0
37 743 -744 0
743 745 -744 0
33 -744 0
-33 744 0
-746 747 0
-41 -748 747 0
41 746 -747 0
746 748 -747 0
37 -747 0
-37 747 0
-749 750 0
-45 -751 750 0
45 749 -750 0
749 751 -750 0
41 -750 0
-41 750 0
-752 753 0
-754 -49 753 0
752 754 -753 0
49 752 -753 0
45 -753 0
-45 753 0
-755 756 0
-757 -53 756 0
755 757 -756 0
53 755 -756 0
49 -756 0
-49 756 0
-758 759 0
-57 -760 759 0
57 758 -759 0
758 760 -759 0
53 -759 0
-53 759 0
-761 762 0
-763 -61 762 0
761 763 -762 0
61 761 -762 0
57 -762 0
-57 762 0
-764 765 0
-766 -65 765 0
764 766 -765 0
65 764 -765 0
61 -765 0
-61 765 0
757 767 0
763 767 0
764 767 0
760 767 0
768 767 0
-769 0
-770 771 0
-755 -768 771 0
-757 -758 -768 771 0
-772 0
767 771 0
755 757 770 -767 -771 0
757 770 768 -767 -771 0
755 757 758 770 -767 -771 0
757 758 770 768 -767 -771 0
755 757 770 768 -767 -771 0
755 757 761 770 -767 -771 0
757 761 770 768 -767 -771 0
755 758 761 770 -767 -771 0
758 761 770 768 -767 -771 0
755 761 770 768 -767 -771 0
761 770 768 -767 -771 0
755 757 760 770 -767 -771 0
757 760 770 768 -767 -771 0
755 758 760 770 -767 -771 0
758 760 770 768 -767 -771 0
755 760 770 768 -767 -771 0
760 770 768 -767 -771 0
755 758 770 768 -767 -771 0
758 770 768 -767 -771 0
755 770 768 -767 -771 0
770 768 -767 -771 0
65 -771 0
-65 771 0
-773 774 0
-775 -73 774 0
773 775 -774 0
73 773 -774 0
69 -774 0
-69 774 0
-776 777 0
-77 -778 777 0
77 776 -777 0
776 778 -777 0
73 -777 0
-73 777 0
-779 780 0
-81 -781 780 0
81 779 -780 0
779 781 -780 0
77 -780 0
-77 780 0
-782 783 0
-85 -784 783 0
85 782 -783 0
782 784 -783 0
81 -783 0
-81 783 0
-785 786 0
-89 -787 786 0
89 785 -786 0
785 787 -786 0
85 -786 0
-85 786 0
-788 789 0
-93 -790 789 0
93 788 -789 0
788 790 -789 0
89 -789 0
-89 789 0
-791 792 0
-793 -97 792 0
791 793 -792 0
97 791 -792 0
93 -792 0
-93 792 0
-794 795 0
-796 -101 795 0
794 796 -795 0
101 794 -795 0
97 -795 0
-97 795 0
-797 798 0
-799 -105 798 0
797 799 -798 0
105 797 -798 0
101 -798 0
-101 798 0
-800 801 0
-109 -802 801 0
109 800 -801 0
800 802 -801 0
105 -801 0
-105 801 0
793 803 0
796 803 0
799 803 0
804 803 0
800 803 0
790 803 0
-805 0
793 806 0
796 806 0
804 806 0
797 806 0
790 806 0
-807 0
-808 809 0
-804 -788 809 0
-804 -791 -790 809 0
-810 0
806 809 0
803 809 0
811 0
812 0
813 0
814 0
815 0
816 0
808 804 -803 -806 -809 0
817 0
818 0
819 0
820 0
821 0
822 0
823 0
824 0
825 0
826 0
827 0
828 0
829 0
830 0
109 -809 0
-109 809 0
-831 832 0
-117 -833 832 0
117 831 -832 0
831 833 -832 0
113 -832 0
-113 832 0
-834 835 0
-836 -121 835 0
834 836 -835 0
121 834 -835 0
117 -835 0
-117 835 0
-837 838 0
-839 -125 838 0
837 839 -838 0
125 837 -838 0
121 -838 0
-121 838 0
-840 841 0
-842 -129 841 0
840 842 -841 0
129 840 -841 0
125 -841 0
-125 841 0
-843 844 0
-133 -845 844 0
133 843 -844 0
843 845 -844 0
129 -844 0
-129 844 0
-846 847 0
-848 -137 847 0
846 848 -847 0
137 846 -847 0
133 -847 0
-133 847 0
-849 850 0
-851 -141 850 0
849 851 -850 0
141 849 -850 0
137 -850 0
-137 850 0
-852 853 0
-854 -145 853 0
852 854 -853 0
145 852 -853 0
141 -853 0
-141 853 0
-855 856 0
-149 -857 856 0
149 855 -856 0
855 857 -856 0
145 -856 0
-145 856 0
-858 859 0
-153 -860 859 0
153 858 -859 0
858 860 -859 0
149 -859 0
-149 859 0
848 861 0
851 861 0
854 861 0
862 861 0
858 861 0
857 861 0
-863 0
848 864 0
851 864 0
854 864 0
862 864 0
855 864 0
-865 0
-866 867 0
-862 -846 867 0
-848 -862 -849 867 0
-868 0
864 867 0
861 867 0
869 0
870 0
871 0
872 0
873 0
874 0
875 0
876 0
877 0
878 0
879 0
866 862 -861 -864 -867 0
880 0
881 0
882 0
883 0
884 0
885 0
886 0
887 0
888 0
153 -867 0
-153 867 0
-889 890 0
-891 -161 890 0
889 891 -890 0
161 889 -890 0
157 -890 0
-157 890 0
-892 893 0
-165 -894 893 0
165 892 -893 0
892 894 -893 0
161 -893 0
-161 893 0
-895 896 0
-897 -169 896 0
895 897 -896 0
169 895 -896 0
165 -896 0
-165 896 0
-898 899 0
-173 -900 899 0
173 898 -899 0
898 900 -899 0
169 -899 0
-169 899 0
-901 902 0
-892 -903 902 0
-895 -894 -903 902 0
-904 0
892 895 897 901 -902 0
895 897 901 903 -902 0
892 894 897 901 -902 0
894 897 901 903 -902 0
892 897 901 903 -902 0
897 901 903 -902 0
892 895 898 901 -902 0
895 898 901 903 -902 0
892 894 898 901 -902 0
894 898 901 903 -902 0
892 898 901 903 -902 0
898 901 903 -902 0
892 894 895 901 -902 0
894 895 901 903 -902 0
892 894 901 -902 0
894 901 903 -902 0
892 894 901 903 -902 0
892 895 901 903 -902 0
895 901 903 -902 0
892 901 903 -902 0
901 903 -902 0
173 -902 0
-173 902 0
-905 906 0
-101 -907 906 0
101 905 -906 0
905 907 -906 0
177 -906 0
-177 906 0
-908 909 0
-910 -185 909 0
908 910 -909 0
185 908 -909 0
181 -909 0
-181 909 0
-911 912 0
-189 -913 912 0
189 911 -912 0
911 913 -912 0
185 -912 0
-185 912 0
-914 915 0
-193 -916 915 0
193 914 -915 0
914 916 -915 0
189 -915 0
-189 915 0
-917 918 0
-197 -919 918 0
197 917 -918 0
917 919 -918 0
193 -918 0
-193 918 0
-920 921 0
-201 -922 921 0
201 920 -921 0
920 922 -921 0
197 -921 0
-197 921 0
-923 924 0
-29 -925 924 0
29 923 -924 0
923 925 -924 0
201 -924 0
-201 924 0
-926 927 0
-209 -928 927 0
209 926 -927 0
926 928 -927 0
205 -927 0
-205 927 0
-929 930 0
-931 -213 930 0
929 931 -930 0
213 929 -930 0
209 -930 0
-209 930 0
-932 933 0
-934 -217 933 0
932 934 -933 0
217 932 -933 0
213 -933 0
-213 933 0
-935 936 0
-937 -221 936 0
935 937 -936 0
221 935 -936 0
217 -936 0
-217 936 0
-938 939 0
-940 -225 939 0
938 940 -939 0
225 938 -939 0
221 -939 0
-221 939 0
-941 942 0
-229 -943 942 0
229 941 -942 0
941 943 -942 0
225 -942 0
-225 942 0
-944 945 0
-233 -946 945 0
233 944 -945 0
944 946 -945 0
229 -945 0
-229 945 0
-947 948 0
-949 -237 948 0
947 949 -948 0
237 947 -948 0
233 -948 0
-233 948 0
-950 951 0
-952 -241 951 0
950 952 -951 0
241 950 -951 0
237 -951 0
-237 951 0
-953 954 0
-955 -245 954 0
953 955 -954 0
245 953 -954 0
241 -954 0
-241 954 0
949 956 0
952 956 0
957 956 0
953 956 0
946 956 0
-958 0
-959 960 0
-957 -944 960 0
-957 -947 -946 960 0
-961 0
956 960 0
949 959 957 -956 -960 0
944 949 959 957 -956 -960 0
947 949 959 957 -956 -960 0
944 947 949 959 -956 -960 0
946 949 959 957 -956 -960 0
944 946 949 959 -956 -960 0
959 957 -956 -960 0
944 959 957 -956 -960 0
947 959 957 -956 -960 0
944 947 959 957 -956 -960 0
946 959 957 -956 -960 0
944 946 959 957 -956 -960 0
950 959 957 -956 -960 0
944 950 959 957 -956 -960 0
947 950 959 957 -956 -960 0
944 947 950 959 -956 -960 0
946 950 959 957 -956 -960 0
944 946 950 959 -956 -960 0
946 947 959 957 -956 -960 0
944 946 947 959 -956 -960 0
944 946 959 -956 -960 0
245 -960 0
-245 960 0
-962 963 0
-964 -253 963 0
962 964 -963 0
253 962 -963 0
249 -963 0
-249 963 0
-965 966 0
-967 -257 966 0
965 967 -966 0
257 965 -966 0
253 -966 0
-253 966 0
-968 969 0
-261 -970 969 0
261 968 -969 0
968 970 -969 0
257 -969 0
-257 969 0
-971 972 0
-265 -973 972 0
265 971 -972 0
971 973 -972 0
261 -972 0
-261 972 0
-974 975 0
-976 -269 975 0
974 976 -975 0
269 974 -975 0
265 -975 0
-265 975 0
-977 978 0
-979 -273 978 0
977 979 -978 0
273 977 -978 0
269 -978 0
-269 978 0
-980 981 0
-982 -277 981 0
980 982 -981 0
277 980 -981 0
273 -981 0
-273 981 0
-983 984 0
-281 -985 984 0
281 983 -984 0
983 985 -984 0
277 -984 0
-277 984 0
-986 987 0
-988 -285 987 0
986 988 -987 0
285 986 -987 0
281 -987 0
-281 987 0
-989 990 0
-289 -991 990 0
289 989 -990 0
989 991 -990 0
285 -990 0
-285 990 0
-992 993 0
-293 -994 993 0
293 992 -993 0
992 994 -993 0
289 -993 0
-289 993 0
982 995 0
988 995 0
992 995 0
985 995 0
991 995 0
996 995 0
-997 0
982 998 0
988 998 0
989 998 0
985 998 0
996 998 0
-999 0
-1000 1001 0
-980 -996 1001 0
-982 -983 -996 1001 0
-1002 0
998 1001 0
995 1001 0
1003 0
1004 0
1005 0
1006 0
1007 0
1008 0
1009 0
1010 0
1011 0
1012 0
1013 0
1014 0
1015 0
1016 0
1017 0
1018 0
1019 0
1020 0
1021 0
1022 0
1000 996 -995 -998 -1001 0
293 -1001 0
-293 1001 0
-1023 1024 0
-1025 -301 1024 0
1023 1025 -1024 0
301 1023 -1024 0
297 -1024 0
-297 1024 0
-1026 1027 0
-305 -1028 1027 0
305 1026 -1027 0
1026 1028 -1027 0
301 -1027 0
-301 1027 0
-1029 1030 0
-309 -1031 1030 0
309 1029 -1030 0
1029 1031 -1030 0
305 -1030 0
-305 1030 0
-1032 1033 0
-313 -1034 1033 0
313 1032 -1033 0
1032 1034 -1033 0
309 -1033 0
-309 1033 0
-1035 1036 0
-169 -1037 1036 0
169 1035 -1036 0
1035 1037 -1036 0
313 -1036 0
-313 1036 0
-1038 1039 0
-1040 -321 1039 0
1038 1040 -1039 0
321 1038 -1039 0
317 -1039 0
-317 1039 0
-1041 1042 0
-325 -1043 1042 0
325 1041 -1042 0
1041 1043 -1042 0
321 -1042 0
-321 1042 0
-1044 1045 0
-1046 -329 1045 0
1044 1046 -1045 0
329 1044 -1045 0
325 -1045 0
-325 1045 0
1047 -1048 0
-1049 -333 1047 0
1048 1049 -1047 0
333 1048 -1047 0
329 -1047 0
-329 1047 0
-1050 1051 0
-1052 -337 1051 0
1050 1052 -1051 0
337 1050 -1051 0
333 -1051 0
-333 1051 0
-1053 1054 0
-341 -1055 1054 0
341 1053 -1054 0
1053 1055 -1054 0
337 -1054 0
-337 1054 0
-1056 1057 0
-345 -1058 1057 0
345 1056 -1057 0
1056 1058 -1057 0
341 -1057 0
-341 1057 0
-1059 1060 0
-349 -1061 1060 0
349 1059 -1060 0
1059 1061 -1060 0
345 -1060 0
-345 1060 0
-1062 1063 0
-353 -1064 1063 0
353 1062 -1063 0
1062 1064 -1063 0
349 -1063 0
-349 1063 0
1052 1065 0
1066 1065 0
1062 1065 0
1055 1065 0
1058 1065 0
1061 1065 0
-1067 0
1052 1068 0
1066 1068 0
1059 1068 0
1055 1068 0
1058 1068 0
-1069 0
-1070 1071 0
-1066 -1050 1071 0
-1052 -1066 -1053 1071 0
-1072 0
1068 1071 0
1065 1071 0
1073 0
1074 0
1075 0
1076 0
1077 0
1070 1066 -1065 -1068 -1071 0
1078 0
1079 0
1080 0
1081 0
1082 0
1083 0
1084 0
1085 0
1086 0
1087 0
1088 0
1089 0
1090 0
1091 0
1092 0
353 -1071 0
-353 1071 0
-1093 1094 0
-361 -1095 1094 0
361 1093 -1094 0
1093 1095 -1094 0
357 -1094 0
-357 1094 0
-1096 1097 0
-365 -1098 1097 0
365 1096 -1097 0
1096 1098 -1097 0
361 -1097 0
-361 1097 0
-1099 1100 0
-1101 -369 1100 0
1099 1101 -1100 0
369 1099 -1100 0
365 -1100 0
-365 1100 0
-1102 1103 0
-1104 -373 1103 0
1102 1104 -1103 0
373 1102 -1103 0
369 -1103 0
-369 1103 0
1105 -1106 0
-1107 -377 1105 0
1106 1107 -1105 0
377 1106 -1105 0
373 -1105 0
-373 1105 0
-1108 1109 0
-1110 -381 1109 0
1108 1110 -1109 0
381 1108 -1109 0
377 -1109 0
-377 1109 0
-1111 1112 0
-1113 -385 1112 0
1111 1113 -1112 0
385 1111 -1112 0
381 -1112 0
-381 1112 0
-1114 1115 0
-389 -1116 1115 0
389 1114 -1115 0
1114 1116 -1115 0
385 -1115 0
-385 1115 0
-1117 1118 0
-393 -1119 1118 0
393 1117 -1118 0
1117 1119 -1118 0
389 -1118 0
-389 1118 0
-1120 1121 0
-397 -1122 1121 0
397 1120 -1121 0
1120 1122 -1121 0
393 -1121 0
-393 1121 0
-1123 1124 0
-1125 -401 1124 0
1123 1125 -1124 0
401 1123 -1124 0
397 -1124 0
-397 1124 0
1113 1126 0
1116 1126 0
1119 1126 0
1122 1126 0
1127 1126 0
1123 1126 0
-1128 0
1113 1129 0
1116 1129 0
1119 1129 0
1127 1129 0
1120 1129 0
-1130 0
1131 -1132 0
-1111 -1127 1131 0
-1113 -1127 -1114 1131 0
-1133 0
1129 1131 0
1126 1131 0
1134 0
1135 0
1136 0
1137 0
1138 0
1139 0
1140 0
1141 0
1142 0
1143 0
1144 0
1145 0
1132 1127 -1126 -1129 -1131 0
1146 0
1147 0
1148 0
1149 0
1150 0
1151 0
1152 0
1153 0
401 -1131 0
-401 1131 0
-1154 1155 0
-409 -1156 1155 0
409 1154 -1155 0
1154 1156 -1155 0
405 -1155 0
-405 1155 0
-1157 1158 0
-413 -1159 1158 0
413 1157 -1158 0
1157 1159 -1158 0
409 -1158 0
-409 1158 0
-1160 1161 0
-1162 -417 1161 0
1160 1162 -1161 0
417 1160 -1161 0
413 -1161 0
-413 1161 0
-1163 1164 0
-1165 -421 1164 0
1163 1165 -1164 0
421 1163 -1164 0
417 -1164 0
-417 1164 0
-1166 1167 0
-1168 -425 1167 0
1166 1168 -1167 0
425 1166 -1167 0
421 -1167 0
-421 1167 0
-1169 1170 0
-429 -1171 1170 0
429 1169 -1170 0
1169 1171 -1170 0
425 -1170 0
-425 1170 0
1172 -1173 0
-1163 -1174 1172 0
-1165 -1174 -1166 1172 0
-1175 0
1163 1165 1173 -1172 0
1165 1173 1174 -1172 0
1163 1165 1173 1174 -1172 0
1163 1165 1166 1173 -1172 0
1165 1166 1173 1174 -1172 0
1163 1165 1168 1173 -1172 0
1165 1168 1173 1174 -1172 0
1163 1168 1173 1174 -1172 0
1168 1173 1174 -1172 0
1163 1166 1168 1173 -1172 0
1166 1168 1173 1174 -1172 0
1163 1173 1174 -1172 0
1173 1174 -1172 0
1163 1166 1173 1174 -1172 0
1166 1173 1174 -1172 0
1163 1165 1169 1173 -1172 0
1165 1169 1173 1174 -1172 0
1163 1169 1173 1174 -1172 0
1169 1173 1174 -1172 0
1163 1166 1169 1173 -1172 0
1166 1169 1173 1174 -1172 0
429 -1172 0
-429 1172 0
-1176 1177 0
-437 -1178 1177 0
437 1176 -1177 0
1176 1178 -1177 0
433 -1177 0
-433 1177 0
-1179 1180 0
-441 -1181 1180 0
441 1179 -1180 0
1179 1181 -1180 0
437 -1180 0
-437 1180 0
-1182 1183 0
-445 -1184 1183 0
445 1182 -1183 0
1182 1184 -1183 0
441 -1183 0
-441 1183 0
-1185 1186 0
-1187 -449 1186 0
1185 1187 -1186 0
449 1185 -1186 0
445 -1186 0
-445 1186 0
-1188 1189 0
-453 -1190 1189 0
453 1188 -1189 0
1188 1190 -1189 0
449 -1189 0
-449 1189 0
1191 -1192 0
-1193 -457 1191 0
1192 1193 -1191 0
457 1192 -1191 0
453 -1191 0
-453 1191 0
-1194 1195 0
-461 -1196 1195 0
461 1194 -1195 0
1194 1196 -1195 0
457 -1195 0
-457 1195 0
-1197 1198 0
-465 -1199 1198 0
465 1197 -1198 0
1197 1199 -1198 0
461 -1198 0
-461 1198 0
-1200 1201 0
-469 -1202 1201 0
469 1200 -1201 0
1200 1202 -1201 0
465 -1201 0
-465 1201 0
1203 -1204 0
-1194 -1205 1203 0
-1196 -1205 -1197 1203 0
-1206 0
1194 1196 1200 1204 -1203 0
1196 1200 1204 1205 -1203 0
1194 1200 1204 1205 -1203 0
1200 1204 1205 -1203 0
1194 1197 1200 1204 -1203 0
1197 1200 1204 1205 -1203 0
1194 1196 1204 -1203 0
1196 1204 1205 -1203 0
1194 1196 1204 1205 -1203 0
1194 1196 1197 1204 -1203 0
1196 1197 1204 1205 -1203 0
1194 1196 1199 1204 -1203 0
1196 1199 1204 1205 -1203 0
1194 1199 1204 1205 -1203 0
1199 1204 1205 -1203 0
1194 1197 1199 1204 -1203 0
1197 1199 1204 1205 -1203 0
1194 1204 1205 -1203 0
1204 1205 -1203 0
1194 1197 1204 1205 -1203 0
1197 1204 1205 -1203 0
469 -1203 0
-469 1203 0
-1207 1208 0
-1209 -477 1208 0
1207 1209 -1208 0
477 1207 -1208 0
473 -1208 0
-473 1208 0
1210 -1211 0
-481 -1212 1210 0
481 1211 -1210 0
1211 1212 -1210 0
477 -1210 0
-477 1210 0
1213 -1214 0
-1215 -485 1213 0
1214 1215 -1213 0
485 1214 -1213 0
481 -1213 0
-481 1213 0
1216 -1217 0
-1218 -489 1216 0
1217 1218 -1216 0
489 1217 -1216 0
485 -1216 0
-485 1216 0
1219 -1220 0
-493 -1221 1219 0
493 1220 -1219 0
1220 1221 -1219 0
489 -1219 0
-489 1219 0
-1222 1223 0
-1224 -497 1223 0
1222 1224 -1223 0
497 1222 -1223 0
493 -1223 0
-493 1223 0
-1225 1226 0
-1227 -501 1226 0
1225 1227 -1226 0
501 1225 -1226 0
497 -1226 0
-497 1226 0
-1228 1229 0
-1230 -505 1229 0
1228 1230 -1229 0
505 1228 -1229 0
501 -1229 0
-501 1229 0
-1231 1232 0
-509 -1233 1232 0
509 1231 -1232 0
1231 1233 -1232 0
505 -1232 0
-505 1232 0
-1234 1235 0
-513 -1236 1235 0
513 1234 -1235 0
1234 1236 -1235 0
509 -1235 0
-509 1235 0
1224 1237 0
1227 1237 0
1230 1237 0
1234 1237 0
1233 1237 0
1238 1237 0
-1239 0
1224 1240 0
1227 1240 0
1230 1240 0
1231 1240 0
1238 1240 0
-1241 0
-1242 1243 0
-1222 -1238 1243 0
-1224 -1225 -1238 1243 0
-1244 0
1240 1243 0
1237 1243 0
1245 0
1246 0
1247 0
1248 0
1249 0
1250 0
1251 0
1252 0
1253 0
1254 0
1255 0
1256 0
1257 0
1258 0
1242 1238 -1237 -1240 -1243 0
1259 0
1260 0
1261 0
1262 0
1263 0
1264 0
513 -1243 0
-513 1243 0
-1265 1266 0
-1267 -521 1266 0
1265 1267 -1266 0
521 1265 -1266 0
517 -1266 0
-517 1266 0
-1268 1269 0
-1270 -525 1269 0
1268 1270 -1269 0
525 1268 -1269 0
521 -1269 0
-521 1269 0
1271 -1272 0
-529 -1273 1271 0
529 1272 -1271 0
1272 1273 -1271 0
525 -1271 0
-525 1271 0
-1274 1275 0
-533 -1276 1275 0
533 1274 -1275 0
1274 1276 -1275 0
529 -1275 0
-529 1275 0
-1277 1278 0
-1279 -537 1278 0
1277 1279 -1278 0
537 1277 -1278 0
533 -1278 0
-533 1278 0
-1280 1281 0
-1282 -541 1281 0
1280 1282 -1281 0
541 1280 -1281 0
537 -1281 0
-537 1281 0
-1283 1284 0
-1285 -545 1284 0
1283 1285 -1284 0
545 1283 -1284 0
541 -1284 0
-541 1284 0
1279 1286 0
1282 1286 0
1283 1286 0
1276 1286 0
1287 1286 0
-1288 0
-1289 1290 0
-1274 -1287 1290 0
-1277 -1276 -1287 1290 0
-1291 0
1286 1290 0
1292 0
1293 0
1294 0
1295 0
1296 0
1279 1289 1287 -1286 -1290 0
1297 0
1298 0
1299 0
1300 0
1301 0
1280 1289 1287 -1286 -1290 0
1302 0
1303 0
1274 1276 1289 -1286 -1290 0
1276 1289 1287 -1286 -1290 0
1304 0
1305 0
1277 1289 1287 -1286 -1290 0
1274 1289 1287 -1286 -1290 0
1289 1287 -1286 -1290 0
545 -1290 0
-545 1290 0
-1306 1307 0
-1308 -553 1307 0
1306 1308 -1307 0
553 1306 -1307 0
549 -1307 0
-549 1307 0
1309 -1310 0
-557 -1311 1309 0
557 1310 -1309 0
1310 1311 -1309 0
553 -1309 0
-553 1309 0
1312 -1313 0
-561 -1314 1312 0
561 1313 -1312 0
1313 1314 -1312 0
557 -1312 0
-557 1312 0
-1315 1316 0
-565 -1317 1316 0
565 1315 -1316 0
1315 1317 -1316 0
561 -1316 0
-561 1316 0
1318 -1319 0
-1320 -569 1318 0
1319 1320 -1318 0
569 1319 -1318 0
565 -1318 0
-565 1318 0
1321 -1322 0
-573 -1323 1321 0
573 1322 -1321 0
1322 1323 -1321 0
569 -1321 0
-569 1321 0
-1324 1325 0
-1326 -577 1325 0
1324 1326 -1325 0
577 1324 -1325 0
573 -1325 0
-573 1325 0
-1327 1328 0
-1329 -581 1328 0
1327 1329 -1328 0
581 1327 -1328 0
577 -1328 0
-577 1328 0
-1330 1331 0
-585 -1332 1331 0
585 1330 -1331 0
1330 1332 -1331 0
581 -1331 0
-581 1331 0
-1333 1334 0
-1335 -589 1334 0
1333 1335 -1334 0
589 1333 -1334 0
585 -1334 0
-585 1334 0
-1336 1337 0
-1338 -593 1337 0
1336 1338 -1337 0
593 1336 -1337 0
589 -1337 0
-589 1337 0
1326 1339 0
1329 1339 0
1335 1339 0
1340 1339 0
1332 1339 0
1336 1339 0
-1341 0
1326 1342 0
1329 1342 0
1340 1342 0
1332 1342 0
1333 1342 0
-1343 0
1344 -1345 0
-1340 -1324 1344 0
-1326 -1340 -1327 1344 0
-1346 0
1342 1344 0
1339 1344 0
1347 0
1348 0
1349 0
1350 0
1351 0
1352 0
1353 0
1354 0
1355 0
1356 0
1357 0
1345 1340 -1339 -1342 -1344 0
1358 0
1359 0
1360 0
1361 0
1362 0
1363 0
1364 0
1365 0
1366 0
593 -1344 0
-593 1344 0
-1367 1368 0
-1369 -601 1368 0
1367 1369 -1368 0
601 1367 -1368 0
597 -1368 0
-597 1368 0
-1370 1371 0
-1372 -605 1371 0
1370 1372 -1371 0
605 1370 -1371 0
601 -1371 0
-601 1371 0
-1373 1374 0
-1375 -609 1374 0
1373 1375 -1374 0
609 1373 -1374 0
605 -1374 0
-605 1374 0
-1376 1377 0
-613 -1378 1377 0
613 1376 -1377 0
1376 1378 -1377 0
609 -1377 0
-609 1377 0
1379 -1380 0
-1381 -617 1379 0
1380 1381 -1379 0
617 1380 -1379 0
613 -1379 0
-613 1379 0
-1382 1383 0
-1384 -621 1383 0
1382 1384 -1383 0
621 1382 -1383 0
617 -1383 0
-617 1383 0
-1385 1386 0
-625 -1387 1386 0
625 1385 -1386 0
1385 1387 -1386 0
621 -1386 0
-621 1386 0
-1388 1389 0
-1390 -629 1389 0
1388 1390 -1389 0
629 1388 -1389 0
625 -1389 0
-625 1389 0
-1391 1392 0
-1393 -633 1392 0
1391 1393 -1392 0
633 1391 -1392 0
629 -1392 0
-629 1392 0
-1394 1395 0
-1396 -637 1395 0
1394 1396 -1395 0
637 1394 -1395 0
633 -1395 0
-633 1395 0
1384 1397 0
1390 1397 0
1393 1397 0
1387 1397 0
1398 1397 0
1394 1397 0
-1399 0
1384 1400 0
1390 1400 0
1387 1400 0
1398 1400 0
1391 1400 0
-1401 0
1402 -1403 0
-1382 -1398 1402 0
-1384 -1398 -1385 1402 0
-1404 0
1400 1402 0
1397 1402 0
1405 0
1406 0
1407 0
1408 0
1409 0
1410 0
1411 0
1412 0
1413 0
1414 0
1415 0
1416 0
1403 1398 -1397 -1400 -1402 0
1417 0
1418 0
1419 0
1420 0
1421 0
1422 0
1423 0
1424 0
637 -1402 0
-637 1402 0
-1425 1426 0
-1427 -645 1426 0
1425 1427 -1426 0
645 1425 -1426 0
641 -1426 0
-641 1426 0
-1428 1429 0
-649 -1430 1429 0
649 1428 -1429 0
1428 1430 -1429 0
645 -1429 0
-645 1429 0
-1431 1432 0
-1433 -653 1432 0
1431 1433 -1432 0
653 1431 -1432 0
649 -1432 0
-649 1432 0
1434 -1435 0
-1436 -657 1434 0
1435 1436 -1434 0
657 1435 -1434 0
653 -1434 0
-653 1434 0
-1437 1438 0
-1439 -661 1438 0
1437 1439 -1438 0
661 1437 -1438 0
657 -1438 0
-657 1438 0
-1440 1441 0
-1442 -665 1441 0
1440 1442 -1441 0
665 1440 -1441 0
661 -1441 0
-661 1441 0
-1443 1444 0
-1445 -669 1444 0
1443 1445 -1444 0
669 1443 -1444 0
665 -1444 0
-665 1444 0
-1446 1447 0
-673 -1448 1447 0
673 1446 -1447 0
1446 1448 -1447 0
669 -1447 0
-669 1447 0
1439 1449 0
1442 1449 0
1445 1449 0
1450 1449 0
1446 1449 0
-1451 0
-1452 1453 0
-1450 -1437 1453 0
-1439 -1450 -1440 1453 0
-1454 0
1449 1453 0
1439 1452 1450 -1449 -1453 0
1437 1439 1452 -1449 -1453 0
1455 0
1456 0
1457 0
1458 0
1459 0
1442 1452 1450 -1449 -1453 0
1460 0
1461 0
1462 0
1452 1450 -1449 -1453 0
1437 1452 1450 -1449 -1453 0
1440 1452 1450 -1449 -1453 0
1463 0
1464 0
1465 0
1443 1452 1450 -1449 -1453 0
1466 0
1467 0
1468 0
673 -1453 0
-673 1453 0
-1469 1470 0
-1471 -681 1470 0
1469 1471 -1470 0
681 1469 -1470 0
677 -1470 0
-677 1470 0
-1472 1473 0
-685 -1474 1473 0
685 1472 -1473 0
1472 1474 -1473 0
681 -1473 0
-681 1473 0
-1475 1476 0
-689 -1477 1476 0
689 1475 -1476 0
1475 1477 -1476 0
685 -1476 0
-685 1476 0
1478 -1479 0
-693 -1480 1478 0
693 1479 -1478 0
1479 1480 -1478 0
689 -1478 0
-689 1478 0
-1481 1482 0
-697 -1483 1482 0
697 1481 -1482 0
1481 1483 -1482 0
693 -1482 0
-693 1482 0
-1484 1485 0
-701 -1486 1485 0
701 1484 -1485 0
1484 1486 -1485 0
697 -1485 0
-697 1485 0
-1487 1488 0
-1489 -705 1488 0
1487 1489 -1488 0
705 1487 -1488 0
701 -1488 0
-701 1488 0
-1490 1491 0
-709 -1492 1491 0
709 1490 -1491 0
1490 1492 -1491 0
705 -1491 0
-705 1491 0
-1493 1494 0
-1495 -713 1494 0
1493 1495 -1494 0
713 1493 -1494 0
709 -1494 0
-709 1494 0
1489 1496 0
1497 1496 0
1486 1496 0
1492 1496 0
1493 1496 0
-1498 0
1499 -1500 0
-1497 -1484 1499 0
-1497 -1486 -1487 1499 0
-1501 0
1496 1499 0
1489 1500 1497 -1496 -1499 0
1502 0
1503 0
1504 0
1505 0
1506 0
1500 1497 -1496 -1499 0
1484 1500 1497 -1496 -1499 0
1486 1500 1497 -1496 -1499 0
1507 0
1487 1500 1497 -1496 -1499 0
1508 0
1490 1500 1497 -1496 -1499 0
1509 0
1510 0
1511 0
1512 0
1513 0
1484 1486 1500 -1496 -1499 0
1514 0
1515 0
713 -1499 0
-713 1499 0
-719 0
722 0
725 0
728 0
731 0
734 0
-737 0
-738 0
745 0
748 0
751 0
-754 0
-757 0
760 0
-763 0
-766 0
768 0
-775 0
778 0
781 0
784 0
787 0
790 0
-793 0
-796 0
-799 0
802 0
-804 0
833 0
-836 0
-839 0
-842 0
845 0
-848 0
-851 0
-854 0
857 0
860 0
-862 0
-891 0
894 0
-897 0
900 0
903 0
907 0
-910 0
913 0
916 0
919 0
922 0
925 0
928 0
-931 0
-934 0
-937 0
-940 0
943 0
946 0
-949 0
-952 0
-955 0
-957 0
-964 0
-967 0
970 0
973 0
-976 0
-979 0
-982 0
985 0
-988 0
991 0
994 0
996 0
-1025 0
1028 0
1031 0
1034 0
1037 0
-1040 0
1043 0
-1046 0
-1049 0
-1052 0
1055 0
1058 0
1061 0
1064 0
-1066 0
1095 0
1098 0
-1101 0
-1104 0
-1107 0
-1110 0
-1113 0
1116 0
1119 0
1122 0
-1125 0
1127 0
1156 0
1159 0
-1162 0
-1165 0
-1168 0
1171 0
1174 0
1178 0
1181 0
1184 0
-1187 0
1190 0
-1193 0
1196 0
1199 0
1202 0
1205 0
-1209 0
1212 0
-1215 0
-1218 0
1221 0
-1224 0
-1227 0
-1230 0
1233 0
1236 0
1238 0
-1267 0
-1270 0
1273 0
1276 0
-1279 0
-1282 0
-1285 0
1287 0
-1308 0
1311 0
1314 0
1317 0
-1320 0
1323 0
-1326 0
-1329 0
1332 0
-1335 0
-1338 0
-1340 0
-1369 0
-1372 0
-1375 0
1378 0
-1381 0
-1384 0
1387 0
-1390 0
-1393 0
-1396 0
1398 0
-1427 0
1430 0
-1433 0
-1436 0
-1439 0
-1442 0
-1445 0
1448 0
-1450 0
-1471 0
1474 0
1477 0
1480 0
1483 0
1486 0
-1489 0
1492 0
-1495 0
-1497 0
-717 0
-720 0
-723 0
-726 0
-729 0
-732 0
-735 0
-741 0
-743 0
-746 0
-749 0
-752 0
-755 0
-758 0
-761 0
-764 0
-770 0
-773 0
-776 0
-779 0
-782 0
-785 0
-788 0
-791 0
-794 0
-797 0
-800 0
-808 0
-831 0
-834 0
-837 0
-840 0
-843 0
-846 0
-849 0
-852 0
-855 0
-858 0
-866 0
-889 0
-892 0
-895 0
-898 0
-901 0
-905 0
-908 0
-911 0
-914 0
-917 0
-920 0
-923 0
-926 0
-929 0
-932 0
-935 0
-938 0
-941 0
-944 0
-947 0
-950 0
-953 0
-959 0
-962 0
-965 0
-968 0
-971 0
-974 0
-977 0
-980 0
-983 0
-986 0
-989 0
-992 0
-1000 0
-1023 0
-1026 0
-1029 0
-1032 0
-1035 0
-1038 0
-1041 0
-1044 0
1048 0
-1050 0
-1053 0
-1056 0
-1059 0
-1062 0
-1070 0
-1093 0
-1096 0
-1099 0
-1102 0
1106 0
-1108 0
-1111 0
1114 0
1117 0
1120 0
1123 0
1132 0
-1154 0
-1157 0
-1160 0
1163 0
1166 0
1169 0
1173 0
-1176 0
-1179 0
-1182 0
-1185 0
-1188 0
1192 0
1194 0
1197 0
-1200 0
1204 0
-1207 0
1211 0
1214 0
1217 0
1220 0
1222 0
-1225 0
1228 0
-1231 0
-1234 0
-1242 0
-1265 0
-1268 0
1272 0
-1274 0
-1277 0
-1280 0
-1283 0
-1289 0
-1306 0
1310 0
1313 0
-1315 0
1319 0
1322 0
-1324 0
1327 0
-1330 0
1333 0
1336 0
1345 0
-1367 0
-1370 0
-1373 0
-1376 0
1380 0
-1382 0
1385 0
1388 0
1391 0
1394 0
1403 0
-1425 0
-1428 0
-1431 0
1435 0
-1437 0
1440 0
1443 0
-1446 0
-1452 0
-1469 0
-1472 0
-1475 0
1479 0
-1481 0
-1484 0
1487 0
-1490 0
1493 0
1500 0
4 0
36 0
72 0
116 0
160 0
180 0
184 0
208 0
252 0
300 0
-320 0
-360 0
-408 0
-436 0
-476 0
-520 0
-552 0
-600 0
-644 0
-680 0
